Minimize
  - 10 y_0 - 8 y_1 - 7 y_2 - 15 y_3 - 14 y_4 - 12 y_5 - 22 y_6 - 12 y_7
   - 17 y_9 + 15 x_0_1 + 29 x_0_3 + 55 x_0_4 + 31 x_0_5 + 13 x_0_7
   + 39 x_0_8 + 37 x_0_9 + 44 x_1_2 + 29 x_1_3 + 66 x_1_4 + 64 x_1_6
   + 33 x_1_8 + 35 x_1_9 + 67 x_2_3 + 76 x_2_6 + 51 x_2_7 + 28 x_2_8
   + 75 x_2_9 + 82 x_3_4 + 50 x_3_6 + 8 x_3_9 + 71 x_4_6 + 68 x_4_7
   + 90 x_4_9 + 43 x_5_7 + 49 x_5_8 + 52 x_6_7 + 88 x_6_8 + 46 x_7_8
   + 24 x_7_9 + 69 x_8_9 + 69 x_8_9 + 69 x_8_9 + 69 x_8_9 + 69 x_8_9
   + 69 x_8_9 + 69 x_8_9 + 69 x_8_9 + 69 x_8_9 + 69 x_8_9 + 69 x_8_9
   + 69 x_8_9 + 69 x_8_9 + 69 x_8_9 + 69 x_8_9 + 69 x_8_9 + 69 x_8_9
   + 69 x_8_9 + 69 x_8_9 + 69 x_8_9 + 69 x_8_9 + 69 x_8_9 + 69 x_8_9
   + 69 x_8_9 + 69 x_8_9 + 69 x_8_9 + 69 x_8_9 + 69 x_8_9 + 69 x_8_9
   + 69 x_8_9 + 69 x_8_9 + 69 x_8_9 + 69 x_8_9 + 69 x_8_9 + 69 x_8_9
   + 69 x_8_9 + 69 x_8_9 + 69 x_8_9 + 69 x_8_9 + 69 x_8_9 + 69 x_8_9
   + 69 x_8_9 + 69 x_8_9 + 69 x_8_9 + 69 x_8_9 + 69 x_8_9 + 69 x_8_9
   + 69 x_8_9 + 69 x_8_9 + 69 x_8_9 + 69 x_8_9 + 69 x_8_9 + 69 x_8_9
   + 69 x_8_9 + 69 x_8_9 + 69 x_8_9 + 69 x_8_9 + 69 x_8_9 + 69 x_8_9
   + 69 x_8_9 + 69 x_8_9 + 69 x_8_9 + 69 x_8_9 + 69 x_8_9 + 69 x_8_9
   + 69 x_8_9 + 69 x_8_9 + 69 x_8_9 + 69 x_8_9 + 69 x_8_9 + 69 x_8_9
   + 69 x_8_9 + 69 x_8_9 + 69 x_8_9 + 69 x_8_9 + 69 x_8_9 + 69 x_8_9
   + 69 x_8_9 + 69 x_8_9 + 69 x_8_9 + 69 x_8_9 + 69 x_8_9 + 69 x_8_9
   + 69 x_8_9 + 69 x_8_9 + 69 x_8_9 + 69 x_8_9 + 69 x_8_9 + 69 x_8_9
   + 69 x_8_9 + 69 x_8_9 + 69 x_8_9 + 69 x_8_9 + 69 x_8_9 + 69 x_8_9
   + 69 x_8_9 + 69 x_8_9 + 69 x_8_9 + 69 x_8_9 + 69 x_8_9 + 69 x_8_9
   + 69 x_8_9 + 69 x_8_9 + 69 x_8_9 + 69 x_8_9 + 69 x_8_9 + 69 x_8_9
   + 69 x_8_9 + 69 x_8_9 + 69 x_8_9 + 69 x_8_9 + 69 x_8_9 + 69 x_8_9
   + 69 x_8_9 + 69 x_8_9 + 69 x_8_9 + 69 x_8_9 + 69 x_8_9 + 69 x_8_9
   + 69 x_8_9 + 69 x_8_9 + 69 x_8_9 + 69 x_8_9 + 69 x_8_9 + 69 x_8_9
   + 69 x_8_9 + 69 x_8_9 + 69 x_8_9 + 69 x_8_9 + 69 x_8_9 + 69 x_8_9
   + 69 x_8_9 + 69 x_8_9 + 69 x_8_9 + 69 x_8_9 + 69 x_8_9 + 69 x_8_9
   + 69 x_8_9 + 69 x_8_9 + 69 x_8_9 + 69 x_8_9 + 69 x_8_9 + 69 x_8_9
   + 69 x_8_9 + 69 x_8_9 + 69 x_8_9 + 69 x_8_9 + 69 x_8_9 + 69 x_8_9
   + 69 x_8_9 + 69 x_8_9 + 69 x_8_9 + 69 x_8_9 + 69 x_8_9 + 69 x_8_9
   + 69 x_8_9 + 69 x_8_9 + 69 x_8_9 + 69 x_8_9 + 69 x_8_9 + 69 x_8_9
   + 69 x_8_9 + 69 x_8_9 + 69 x_8_9 + 69 x_8_9 + 69 x_8_9 + 69 x_8_9
   + 69 x_8_9 + 69 x_8_9 + 69 x_8_9 + 69 x_8_9 + 69 x_8_9 + 69 x_8_9
   + 69 x_8_9 + 69 x_8_9 + 69 x_8_9 + 69 x_8_9 + 69 x_8_9 + 69 x_8_9
   + 69 x_8_9 + 69 x_8_9 + 69 x_8_9 + 69 x_8_9 + 69 x_8_9 + 69 x_8_9
   + 69 x_8_9 + 69 x_8_9 + 69 x_8_9 + 69 x_8_9 + 69 x_8_9 + 69 x_8_9
   + 69 x_8_9 + 69 x_8_9 + 69 x_8_9 + 69 x_8_9 + 69 x_8_9 + 69 x_8_9
   + 69 x_8_9 + 69 x_8_9 + 69 x_8_9 + 69 x_8_9 + 69 x_8_9 + 69 x_8_9
   + 69 x_8_9 + 69 x_8_9 + 69 x_8_9 + 69 x_8_9 + 69 x_8_9 + 69 x_8_9
   + 69 x_8_9 + 69 x_8_9 + 69 x_8_9 + 69 x_8_9 + 69 x_8_9 + 69 x_8_9
   + 69 x_8_9 + 69 x_8_9 + 69 x_8_9 + 69 x_8_9 + 69 x_8_9 + 69 x_8_9
   + 69 x_8_9 + 69 x_8_9 + 69 x_8_9 + 69 x_8_9 + 69 x_8_9 + 69 x_8_9
   + 69 x_8_9 + 69 x_8_9 + 69 x_8_9 + 69 x_8_9 + 69 x_8_9 + 69 x_8_9
   + 69 x_8_9 + 69 x_8_9 + 69 x_8_9 + 69 x_8_9 + 69 x_8_9 + 69 x_8_9
   + 69 x_8_9 + 69 x_8_9 + 69 x_8_9 + 69 x_8_9 + 69 x_8_9 + 69 x_8_9
   + 69 x_8_9 + 69 x_8_9 + 69 x_8_9 + 69 x_8_9 + 69 x_8_9 + 69 x_8_9
   + 69 x_8_9 + 69 x_8_9 + 69 x_8_9 + 69 x_8_9 + 69 x_8_9 + 69 x_8_9
   + 69 x_8_9 + 69 x_8_9 + 69 x_8_9 + 69 x_8_9 + 69 x_8_9 + 69 x_8_9
   + 69 x_8_9 + 69 x_8_9 + 69 x_8_9 + 69 x_8_9 + 69 x_8_9 + 69 x_8_9
   + 69 x_8_9 + 69 x_8_9 + 69 x_8_9 + 69 x_8_9 + 69 x_8_9 + 69 x_8_9
   + 69 x_8_9 + 69 x_8_9 + 69 x_8_9 + 69 x_8_9 + 69 x_8_9 + 69 x_8_9
   + 69 x_8_9 + 69 x_8_9 + 69 x_8_9 + 69 x_8_9 + 117 Constant
Subject To
 c_0: y_0 = 1
 c_1_0: y_0 >= 1
 c_1_1: y_1 >= 1
 c_1_2: y_2 >= 1
 c_1_3: y_3 + y_9 >= 1
 c_1_4: y_4 >= 1
 c_1_5: y_5 >= 1
 c_1_6: y_6 >= 1
 c_1_7: y_7 >= 1
 c_1_8: y_8 >= 1
 c_1_9: y_3 + y_9 >= 1
 c_2_0: - 2 y_0 + x_0_1 + x_0_3 + x_0_4 + x_0_5 + x_0_7 + x_0_8 + x_0_9
   = 0
 c_2_1: - 2 y_1 + x_0_1 + x_1_2 + x_1_3 + x_1_4 + x_1_6 + x_1_8 + x_1_9
   = 0
 c_2_2: - 2 y_2 + x_1_2 + x_2_3 + x_2_6 + x_2_7 + x_2_8 + x_2_9 = 0
 c_2_3: - 2 y_3 + x_0_3 + x_1_3 + x_2_3 + x_3_4 + x_3_6 + x_3_9 = 0
 c_2_4: - 2 y_4 + x_0_4 + x_1_4 + x_3_4 + x_4_6 + x_4_7 + x_4_9 = 0
 c_2_5: - 2 y_5 + x_0_5 + x_5_7 + x_5_8 = 0
 c_2_6: - 2 y_6 + x_1_6 + x_2_6 + x_3_6 + x_4_6 + x_6_7 + x_6_8 = 0
 c_2_7: - 2 y_7 + x_0_7 + x_2_7 + x_4_7 + x_5_7 + x_6_7 + x_7_8 + x_7_9
   = 0
 c_2_8: - 2 y_8 + x_0_8 + x_1_8 + x_2_8 + x_5_8 + x_6_8 + x_7_8 + 285 x_8_9
   = 0
 c_2_9: - 2 y_9 + x_0_9 + x_1_9 + x_2_9 + x_3_9 + x_4_9 + x_7_9 + 285 x_8_9
   = 0
Bounds
 Constant = 1
Binaries
 y_0 y_1 y_2 y_3 y_4 y_5 y_6 y_7 y_8 y_9 x_0_1 x_0_3 x_0_4 x_0_5 x_0_7
 x_0_8 x_0_9 x_1_2 x_1_3 x_1_4 x_1_6 x_1_8 x_1_9 x_2_3 x_2_6 x_2_7 x_2_8
 x_2_9 x_3_4 x_3_6 x_3_9 x_4_6 x_4_7 x_4_9 x_5_7 x_5_8 x_6_7 x_6_8 x_7_8
 x_7_9 x_8_9 x_8_9 x_8_9 x_8_9 x_8_9 x_8_9 x_8_9 x_8_9 x_8_9 x_8_9 x_8_9
 x_8_9 x_8_9 x_8_9 x_8_9 x_8_9 x_8_9 x_8_9 x_8_9 x_8_9 x_8_9 x_8_9 x_8_9
 x_8_9 x_8_9 x_8_9 x_8_9 x_8_9 x_8_9 x_8_9 x_8_9 x_8_9 x_8_9 x_8_9 x_8_9
 x_8_9 x_8_9 x_8_9 x_8_9 x_8_9 x_8_9 x_8_9 x_8_9 x_8_9 x_8_9 x_8_9 x_8_9
 x_8_9 x_8_9 x_8_9 x_8_9 x_8_9 x_8_9 x_8_9 x_8_9 x_8_9 x_8_9 x_8_9 x_8_9
 x_8_9 x_8_9 x_8_9 x_8_9 x_8_9 x_8_9 x_8_9 x_8_9 x_8_9 x_8_9 x_8_9 x_8_9
 x_8_9 x_8_9 x_8_9 x_8_9 x_8_9 x_8_9 x_8_9 x_8_9 x_8_9 x_8_9 x_8_9 x_8_9
 x_8_9 x_8_9 x_8_9 x_8_9 x_8_9 x_8_9 x_8_9 x_8_9 x_8_9 x_8_9 x_8_9 x_8_9
 x_8_9 x_8_9 x_8_9 x_8_9 x_8_9 x_8_9 x_8_9 x_8_9 x_8_9 x_8_9 x_8_9 x_8_9
 x_8_9 x_8_9 x_8_9 x_8_9 x_8_9 x_8_9 x_8_9 x_8_9 x_8_9 x_8_9 x_8_9 x_8_9
 x_8_9 x_8_9 x_8_9 x_8_9 x_8_9 x_8_9 x_8_9 x_8_9 x_8_9 x_8_9 x_8_9 x_8_9
 x_8_9 x_8_9 x_8_9 x_8_9 x_8_9 x_8_9 x_8_9 x_8_9 x_8_9 x_8_9 x_8_9 x_8_9
 x_8_9 x_8_9 x_8_9 x_8_9 x_8_9 x_8_9 x_8_9 x_8_9 x_8_9 x_8_9 x_8_9 x_8_9
 x_8_9 x_8_9 x_8_9 x_8_9 x_8_9 x_8_9 x_8_9 x_8_9 x_8_9 x_8_9 x_8_9 x_8_9
 x_8_9 x_8_9 x_8_9 x_8_9 x_8_9 x_8_9 x_8_9 x_8_9 x_8_9 x_8_9 x_8_9 x_8_9
 x_8_9 x_8_9 x_8_9 x_8_9 x_8_9 x_8_9 x_8_9 x_8_9 x_8_9 x_8_9 x_8_9 x_8_9
 x_8_9 x_8_9 x_8_9 x_8_9 x_8_9 x_8_9 x_8_9 x_8_9 x_8_9 x_8_9 x_8_9 x_8_9
 x_8_9 x_8_9 x_8_9 x_8_9 x_8_9 x_8_9 x_8_9 x_8_9 x_8_9 x_8_9 x_8_9 x_8_9
 x_8_9 x_8_9 x_8_9 x_8_9 x_8_9 x_8_9 x_8_9 x_8_9 x_8_9 x_8_9 x_8_9 x_8_9
 x_8_9 x_8_9 x_8_9 x_8_9 x_8_9 x_8_9 x_8_9 x_8_9 x_8_9 x_8_9 x_8_9 x_8_9
 x_8_9 x_8_9 x_8_9 x_8_9 x_8_9 x_8_9 x_8_9 x_8_9 x_8_9 x_8_9 x_8_9 x_8_9
 x_8_9 x_8_9 x_8_9 x_8_9 x_8_9 x_8_9 x_8_9 x_8_9 x_8_9 x_8_9 x_8_9 x_8_9
 x_8_9 x_8_9 x_8_9 x_8_9 x_8_9 x_8_9 x_8_9 x_8_9 x_8_9 x_8_9 x_8_9 x_8_9
 x_8_9 x_8_9 x_8_9 x_8_9 x_8_9 x_8_9 x_8_9 x_8_9 x_8_9 x_8_9
End
